
#(C) 2019 by FIZ Karlsruhe - Leibniz Institute for Information Infrastructure.  All rights reserved.
data_99-ICSD
_database_code_ICSD 99
_audit_creation_date 1980-01-01
_audit_update_record 2009-08-01
_chemical_name_systematic 'Tetrasodium tetraselenidogermanate tetradecahydrate'
_chemical_formula_structural 'Na4 (Ge Se4) (H2 O)14'
_chemical_formula_sum 'H28 Ge1 Na4 O14 Se4'
_exptl_crystal_density_diffrn 2.17
_publ_section_title 'Darstellung und Struktur von Na4 Ge Se4 (H2 O)14'
loop_
_citation_id
_citation_journal_full
_citation_year
_citation_journal_volume
_citation_page_first
_citation_page_last
_citation_journal_id_ASTM
primary 'Zeitschrift fuer Anorganische und Allgemeine Chemie (1950) (DE)' 1976
421 97 104 ZAACAB
loop_
_publ_author_name
'Krebs, B.'
'Jacobsen, H.J.'
_cell_length_a 12.862(4)
_cell_length_b 11.205(3)
_cell_length_c 8.141(2)
_cell_angle_alpha 90.
_cell_angle_beta 107.40(3)
_cell_angle_gamma 90.0(2)
_cell_volume 1119.58
_cell_formula_units_Z 2
_symmetry_space_group_name_H-M 'C 1 2 1'
_symmetry_Int_Tables_number 5
_refine_ls_R_factor_all 0.053
loop_
_symmetry_equiv_pos_site_id
_symmetry_equiv_pos_as_xyz
1 '-x, y, -z'
2 'x, y, z'
3 '-x+1/2, y+1/2, -z'
4 'x+1/2, y+1/2, z'
loop_
_atom_type_symbol
_atom_type_oxidation_number
Ge4+ 4
Se2- -2
O2- -2
Na1+ 1
H1+ 1
loop_
_atom_site_label
_atom_site_type_symbol
_atom_site_symmetry_multiplicity
_atom_site_Wyckoff_symbol
_atom_site_fract_x
_atom_site_fract_y
_atom_site_fract_z
_atom_site_B_iso_or_equiv
_atom_site_occupancy
_atom_site_attached_hydrogens
Ge1 Ge4+ 2 a 0 0 0 . 1. 0
Se1 Se2- 4 c 0.1490(1) 0.1221(2) 0.1340(1) . 1. 0
Se2 Se2- 4 c 0.4532(1) 0.3794(2) 0.2030(1) . 1. 0
O1 O2- 4 c 0.4737(7) 0.0792(8) 0.1914(12) . 1. 0
O2 O2- 4 c 0.1702(7) 0.4309(8) 0.0882(13) . 1. 0
O3 O2- 4 c 0.2222(7) -.2808(9) 0.1442(11) . 1. 0
O4 O2- 4 c 0.3600(6) -.4327(7) 0.4489(9) . 1. 0
O5 O2- 4 c 0.0010(8) 0.2979(9) 0.3009(14) . 1. 0
O6 O2- 4 c 0.3522(7) -.0124(9) 0.4135(11) . 1. 0
O7 O2- 4 c 0.1811(7) -.2329(9) 0.4795(11) . 1. 0
Na1 Na1+ 4 c 0.1470(3) 0.2782(4) 0.5812(7) . 1. 0
Na2 Na1+ 4 c 0.1666(3) -.4268(4) 0.3205(5) . 1. 0
H1 H1+ 4 c 0.414(1) 0.035(1) 0.139(1) 4. 1. 0
H2 H1+ 4 c 0.443(1) 0.166(1) 0.176(1) 4. 1. 0
H3 H1+ 4 c 0.147(1) 0.365(1) 0.096(1) 4. 1. 0
H4 H1+ 4 c 0.239(1) 0.421(1) 0.138(1) 4. 1. 0
H5 H1+ 4 c 0.173(1) -.217(1) 0.123(1) 4. 1. 0
H6 H1+ 4 c 0.252(1) -.294(1) 0.074(1) 4. 1. 0
H7 H1+ 4 c 0.392(1) -.442(1) 0.571(1) 4. 1. 0
H8 H1+ 4 c 0.408(1) -.440(1) 0.390(1) 4. 1. 0
H9 H1+ 4 c 0.040(1) 0.360(1) 0.278(1) 4. 1. 0
H10 H1+ 4 c 0.002(1) 0.248(1) 0.199(1) 4. 1. 0
H11 H1+ 4 c 0.283(1) 0.012(1) 0.333(1) 4. 1. 0
H12 H1+ 4 c 0.413(1) 0.011(1) 0.373(1) 4. 1. 0
H13 H1+ 4 c 0.127(1) -.194(1) 0.473(1) 4. 1. 0
H14 H1+ 4 c 0.200(1) -.280(1) 0.550(1) 4. 1. 0
loop_
_atom_site_aniso_label
_atom_site_aniso_type_symbol
_atom_site_aniso_B_11
_atom_site_aniso_B_22
_atom_site_aniso_B_33
_atom_site_aniso_B_12
_atom_site_aniso_B_13
_atom_site_aniso_B_23
Ge1 Ge4+ 1.39(6) 1.86(5) 1.41(5) 0 0.73(4) 0
Se1 Se2- 1.81(6) 2.76(5) 2.06(5) -.66(6) 0.61(4) -.31(4)
Se2 Se2- 2.47(6) 2.41(5) 1.91(5) 0.06(6) 1.53(4) 0.42(4)
O1 O2- 1.99(30) 3.37(40) 2.87(41) 0.61(28) 0.99(27) 0.49(31)
O2 O2- 3.25(36) 2.21(30) 3.84(48) 0.33(33) 2.29(34) -.03(35)
O3 O2- 2.71(30) 3.72(45) 2.55(36) 0.61(28) 1.26(27) 0.28(31)
O4 O2- 2.23(30) 2.61(30) 1.62(31) 0.66(28) 1.07(27) -.10(24)
O5 O2- 3.37(36) 4.22(45) 4.01(51) 0.17(33) 2.71(38) -.91(42)
O6 O2- 3.07(36) 2.66(35) 2.15(34) 0.66(28) 1.11(27) -.07(31)
O7 O2- 2.59(30) 3.82(40) 2.55(34) 1.38(33) 1.03(27) 0.52(31)
Na1 Na1+ 1.99(18) 2.61(20) 3.25(24) 0.33(17) 0.95(15) 0.49(17)
Na2 Na1+ 1.87(18) 2.96(20) 1.99(17) -.28(17) 0.80(11) 0.07(14)
#End of TTdata_99-ICSD
