
#(C) 2019 by FIZ Karlsruhe - Leibniz Institute for Information Infrastructure.  All rights reserved.
data_204-ICSD
_database_code_ICSD 204
_audit_creation_date 1980-01-01
_audit_update_record 2012-08-01
_chemical_name_systematic 'Sodium tungstate (0.33/1)'
_chemical_formula_structural 'Na0.33 (W O3)'
_chemical_formula_sum 'Na0.33 O3 W1'
_exptl_crystal_density_diffrn 7.24
_publ_section_title

;
Crystal structure studies of tetragonal sodium tungsten bronzes, Nax W O3. I.
Na0.33 W O3 and Na0.48 W O3
;
loop_
_citation_id
_citation_journal_full
_citation_year
_citation_journal_volume
_citation_page_first
_citation_page_last
_citation_journal_id_ASTM
primary 'Journal of Solid State Chemistry' 1976 18 163 174 JSSCBI
loop_
_publ_author_name
'Takusagawa, F.'
'Jacobson, R.A.'
_cell_length_a 12.097(2)
_cell_length_b 12.097(2)
_cell_length_c 3.754(2)
_cell_angle_alpha 90.
_cell_angle_beta 90.
_cell_angle_gamma 90.
_cell_volume 549.35
_cell_formula_units_Z 10
_symmetry_space_group_name_H-M 'P -4 21 m'
_symmetry_Int_Tables_number 113
_refine_ls_R_factor_all 0.089
loop_
_symmetry_equiv_pos_site_id
_symmetry_equiv_pos_as_xyz
1 '-y+1/2, -x+1/2, z'
2 'y, -x, -z'
3 'y+1/2, x+1/2, z'
4 '-y, x, -z'
5 'x+1/2, -y+1/2, -z'
6 '-x, -y, z'
7 '-x+1/2, y+1/2, -z'
8 'x, y, z'
loop_
_atom_type_symbol
_atom_type_oxidation_number
W5+ 5.67
Na1+ 1
O2- -2
loop_
_atom_site_label
_atom_site_type_symbol
_atom_site_symmetry_multiplicity
_atom_site_Wyckoff_symbol
_atom_site_fract_x
_atom_site_fract_y
_atom_site_fract_z
_atom_site_B_iso_or_equiv
_atom_site_occupancy
_atom_site_attached_hydrogens
W1 W5+ 8 f 0.0777(1) 0.2063(1) 0.5087(5) . 1. 0
W2 W5+ 2 c 0 0.5 0.4550(6) . 1. 0
Na1 Na1+ 4 e 0.331(2) 0.169 -.007(19) 5.4 0.825 0
O1 O2- 8 f 0.047 0.211 0 5. 0.25 0
O2 O2- 8 f 0.063 0.172 0 5. 0.25 0
O3 O2- 8 f 0.109 0.211 0 5. 0.25 0
O4 O2- 8 f 0.063 0.234 0 5. 0.25 0
O5 O2- 4 e -.040(4) 0.46 -.040(27) 7.2 0.5 0
O6 O2- 8 f 0.142(4) 0.065(4) 0.391(9) -.7 0.5 0
O7 O2- 8 f 0.142(4) 0.068(4) 0.563(11) 1. 0.5 0
O8 O2- 4 e 0.214(3) 0.286 0.467(10) -.5 0.5 0
O9 O2- 4 e 0.230(4) 0.27 0.568(14) 0.1 0.5 0
O10 O2- 8 f 0.005(4) 0.350(4) 0.405(11) -.3 0.5 0
O11 O2- 8 f -.009(4) 0.356(4) 0.560(12) 0.6 0.5 0
loop_
_atom_site_aniso_label
_atom_site_aniso_type_symbol
_atom_site_aniso_U_11
_atom_site_aniso_U_22
_atom_site_aniso_U_33
_atom_site_aniso_U_12
_atom_site_aniso_U_13
_atom_site_aniso_U_23
W1 W5+ 0.00161(6) 0.00168(6) 0.0101(6) 0.00003(5) 0.0004(3) 0.000(3)
W2 W5+ 0.00149(8) 0.00149(8) 0.015(2) 0 0 0
#End of TTdata_204-ICSD
