
#(C) 2019 by FIZ Karlsruhe - Leibniz Institute for Information Infrastructure.  All rights reserved.
data_191-ICSD
_database_code_ICSD 191
_audit_creation_date 1980-01-01
_audit_update_record 2011-08-01
_chemical_name_systematic 'Iron zirconium selenide (0.16/1/1.94)'
_chemical_formula_structural 'Fe0.16 Zr Se1.94'
_chemical_formula_sum 'Fe0.16 Se1.94 Zr1'
_chemical_name_structure_type LiTiS2
_exptl_crystal_density_diffrn 5.61
_publ_section_title
'Structures of a semiconducting and a metallic phase in the Fe Y Zr Se2 system'
loop_
_citation_id
_citation_journal_full
_citation_year
_citation_journal_volume
_citation_page_first
_citation_page_last
_citation_journal_id_ASTM
primary 'Journal of Solid State Chemistry' 1976 17 363 372 JSSCBI
loop_
_publ_author_name
'Gleizes, A.'
'Revelli, J.'
'Ibers, J.A.'
_cell_length_a 3.763(1)
_cell_length_b 3.763(1)
_cell_length_c 6.118(1)
_cell_angle_alpha 90.
_cell_angle_beta 90.
_cell_angle_gamma 120.
_cell_volume 75.03
_cell_formula_units_Z 1
_symmetry_space_group_name_H-M 'P -3 m 1'
_symmetry_Int_Tables_number 164
_refine_ls_R_factor_all 0.064
loop_
_symmetry_equiv_pos_site_id
_symmetry_equiv_pos_as_xyz
1 'x-y, -y, -z'
2 '-x, -x+y, -z'
3 'y, x, -z'
4 'x-y, x, -z'
5 'y, -x+y, -z'
6 '-x, -y, -z'
7 '-x+y, y, z'
8 'x, x-y, z'
9 '-y, -x, z'
10 '-x+y, -x, z'
11 '-y, x-y, z'
12 'x, y, z'
loop_
_atom_type_symbol
_atom_type_oxidation_number
Zr0+ 0
Fe0+ 0
Se0+ 0
loop_
_atom_site_label
_atom_site_type_symbol
_atom_site_symmetry_multiplicity
_atom_site_Wyckoff_symbol
_atom_site_fract_x
_atom_site_fract_y
_atom_site_fract_z
_atom_site_B_iso_or_equiv
_atom_site_occupancy
_atom_site_attached_hydrogens
Zr1 Zr0+ 1 a 0 0 0 0.46 1. 0
Fe1 Fe0+ 1 b 0 0 0.5 3.7(3) 0.16(3) 0
Se1 Se0+ 2 d 0.3333 0.6666 0.7420(3) 0.83(3) 0.97(3) 0
#End of TTdata_191-ICSD
