
#(C) 2019 by FIZ Karlsruhe - Leibniz Institute for Information Infrastructure.  All rights reserved.
data_341-ICSD
_database_code_ICSD 341
_audit_creation_date 1980-01-01
_audit_update_record 2014-08-01
_chemical_name_systematic 'Hexaantimony heptaoxide bis(sulfate(VI))'
_chemical_formula_structural 'Sb6 O7 (S O4)2'
_chemical_formula_sum 'O15 S2 Sb6'
_chemical_name_structure_type Sb6O7(SO4)2
_exptl_crystal_density_diffrn 5.09
_publ_section_title
'The crystal structure of the antimony(III) oxide sulphate Sb6 O7 (S O4)2'
loop_
_citation_id
_citation_journal_full
_citation_year
_citation_journal_volume
_citation_page_first
_citation_page_last
_citation_journal_id_ASTM
primary

;
Acta Crystallographica, Section B: Structural Crystallography and Crystal
Chemistry
; 1976 32 1771 1777 ACBCAR
loop_
_publ_author_name
'Bovin, J.O.'
_cell_length_a 12.073(2)
_cell_length_b 19.023(4)
_cell_length_c 5.876(1)
_cell_angle_alpha 90.
_cell_angle_beta 90.
_cell_angle_gamma 90.
_cell_volume 1349.51
_cell_formula_units_Z 4
_symmetry_space_group_name_H-M 'C c c 2'
_symmetry_Int_Tables_number 37
_refine_ls_R_factor_all 0.041
loop_
_symmetry_equiv_pos_site_id
_symmetry_equiv_pos_as_xyz
1 'x, -y, z+1/2'
2 '-x, y, z+1/2'
3 '-x, -y, z'
4 'x, y, z'
5 'x+1/2, -y+1/2, z+1/2'
6 '-x+1/2, y+1/2, z+1/2'
7 '-x+1/2, -y+1/2, z'
8 'x+1/2, y+1/2, z'
loop_
_atom_type_symbol
_atom_type_oxidation_number
Sb3+ 3
O2- -2
S6+ 6
O2- -2
loop_
_atom_site_label
_atom_site_type_symbol
_atom_site_symmetry_multiplicity
_atom_site_Wyckoff_symbol
_atom_site_fract_x
_atom_site_fract_y
_atom_site_fract_z
_atom_site_B_iso_or_equiv
_atom_site_occupancy
_atom_site_attached_hydrogens
Sb1 Sb3+ 8 d 0.10783(11) 0.06606(6) 0 . 1. 0
Sb2 Sb3+ 8 d 0.68785(8) 0.06510(6) 0.11354(38) . 1. 0
Sb3 Sb3+ 8 d 0.09265(9) 0.20691(5) 0.63163(41) . 1. 0
O1 O2- 4 a 0 0 -.1548(38) 1.2 1. 0
O2 O2- 8 d 0.2423(8) -.0009(10) -.1129(30) 1.1 1. 0
O3 O2- 8 d 0.8470(9) 0.1010(5) 0.1700(22) 0.9 1. 0
O4 O2- 8 d 0.0071(15) 0.1652(5) 0.8930(27) 1.2 1. 0
S1 S6+ 8 d 0.3665(3) 0.1554(2) 0.1589(11) 1.2 1. 0
O5 O2- 8 d 0.3085(8) 0.1675(9) 0.9396(34) 3.1 1. 0
O6 O2- 8 d 0.2847(11) 0.1547(7) 0.3500(27) 1.3 1. 0
O7 O2- 8 d 0.4456(15) 0.2124(9) 0.2011(30) 3.7 1. 0
O8 O2- 8 d 0.4237(11) 0.0878(7) 0.1627(31) 2.3 1. 0
loop_
_atom_site_aniso_label
_atom_site_aniso_type_symbol
_atom_site_aniso_beta_11
_atom_site_aniso_beta_22
_atom_site_aniso_beta_33
_atom_site_aniso_beta_12
_atom_site_aniso_beta_13
_atom_site_aniso_beta_23
Sb1 Sb3+ 0.00153(6) 0.00077(2) 0.00556(41) -.00004(3) -.00002(18) -.00051(13)
Sb2 Sb3+ 0.00110(6) 0.00072(2) 0.00845(41) 0.00022(3) -.00014(19) -.00073(17)
Sb3 Sb3+ 0.00192(6) 0.00075(2) 0.00523(43) -.00047(3) -.00013(22) -.00001(11)
#End of TTdata_341-ICSD
