
#(C) 2019 by FIZ Karlsruhe - Leibniz Institute for Information Infrastructure.  All rights reserved.
data_165-ICSD
_database_code_ICSD 165
_audit_creation_date 1980-01-01
_audit_update_record 2011-08-01
_chemical_name_systematic 'Manganese silicide (5/2)'
_chemical_formula_structural 'Mn5 Si2'
_chemical_formula_sum 'Mn5 Si2'
_chemical_name_structure_type Mn5Si2
_exptl_crystal_density_diffrn 6.35
_publ_section_title 'Crystal structure of Mn5 Si2 and the d phase (V-Fe-Si)*'
loop_
_citation_id
_citation_journal_full
_citation_year
_citation_journal_volume
_citation_page_first
_citation_page_last
_citation_journal_id_ASTM
primary

;
Acta Crystallographica, Section B: Structural Crystallography and Crystal
Chemistry
; 1976 32 2306 2313 ACBCAR
loop_
_publ_author_name
'Shoemaker, C.B.'
'Shoemaker, D.P.'
_cell_length_a 8.9097(2)
_cell_length_b 8.9097(2)
_cell_length_c 8.7153(3)
_cell_angle_alpha 90.
_cell_angle_beta 90.
_cell_angle_gamma 90.
_cell_volume 691.84
_cell_formula_units_Z 8
_symmetry_space_group_name_H-M 'P 41 21 2'
_symmetry_Int_Tables_number 92
_refine_ls_R_factor_all 0.053
loop_
_symmetry_equiv_pos_site_id
_symmetry_equiv_pos_as_xyz
1 'x+1/2, -y+1/2, -z+3/4'
2 '-x+1/2, y+1/2, -z+1/4'
3 '-y, -x, -z+1/2'
4 'y, x, -z'
5 'y+1/2, -x+1/2, z+3/4'
6 '-y+1/2, x+1/2, z+1/4'
7 '-x, -y, z+1/2'
8 'x, y, z'
loop_
_atom_type_symbol
_atom_type_oxidation_number
Mn0+ 0
Si0+ 0
Mn0+ 0
Si0+ 0
loop_
_atom_site_label
_atom_site_type_symbol
_atom_site_symmetry_multiplicity
_atom_site_Wyckoff_symbol
_atom_site_fract_x
_atom_site_fract_y
_atom_site_fract_z
_atom_site_B_iso_or_equiv
_atom_site_occupancy
_atom_site_attached_hydrogens
Mn1 Mn0+ 8 b 0.42038(27) 0.18554(28) 0.32968(23) 0.634 1. 0
Mn2 Mn0+ 8 b 0.17466(29) 0.22408(28) 0.15031(25) 0.831 1. 0
Mn3 Mn0+ 4 a 0.13799(28) 0.13799(28) 0.5 0.692 1. 0
Mn4 Mn0+ 4 a 0.45162(28) 0.45162(28) 0.5 0.718 1. 0
Mn5 Mn0+ 8 b 0.36946(26) 0.45348(26) 0.21380(25) 0.484 1. 0
Si1 Si0+ 8 b 0.46925(52) 0.26766(49) 0.04582(45) 0.48 1. 0
Mn6 Mn0+ 8 b 0.39882(26) 0.01027(27) 0.07580(23) 0.673 1. 0
Si2 Si0+ 8 b 0.38473(53) 0.19232(52) 0.60242(42) 0.597 1. 0
#End of TTdata_165-ICSD
