
#(C) 2019 by FIZ Karlsruhe - Leibniz Institute for Information Infrastructure.  All rights reserved.
data_169-ICSD
_database_code_ICSD 169
_audit_creation_date 1980-01-01
_audit_update_record 2011-08-01
_chemical_name_systematic 'Tricopper disodium tetrakis(catena-silicate)'
_chemical_formula_structural 'Cu3 Na2 (Si O3)4'
_chemical_formula_sum 'Cu3 Na2 O12 Si4'
_exptl_crystal_density_diffrn 3.45
_publ_section_title
'Crystal structure of synthetic copper sodium silicate: Cu3 Na2 (Si4 O12)'
loop_
_citation_id
_citation_journal_full
_citation_year
_citation_journal_volume
_citation_page_first
_citation_page_last
_citation_journal_id_ASTM
primary

;
Acta Crystallographica, Section B: Structural Crystallography and Crystal
Chemistry
; 1976 32 2419 2422 ACBCAR
loop_
_publ_author_name
'Kawamura, K.'
'Kawahara, A.'
_cell_length_a 7.519(4)
_cell_length_b 10.203(5)
_cell_length_c 13.567(8)
_cell_angle_alpha 90.
_cell_angle_beta 90.
_cell_angle_gamma 90.
_cell_volume 1040.81
_cell_formula_units_Z 4
_symmetry_space_group_name_H-M 'P n m a'
_symmetry_Int_Tables_number 62
_refine_ls_R_factor_all 0.053
loop_
_symmetry_equiv_pos_site_id
_symmetry_equiv_pos_as_xyz
1 'x+1/2, y, -z+1/2'
2 'x, -y+1/2, z'
3 '-x+1/2, y+1/2, z+1/2'
4 '-x, -y, -z'
5 '-x+1/2, -y, z+1/2'
6 '-x, y+1/2, -z'
7 'x+1/2, -y+1/2, -z+1/2'
8 'x, y, z'
loop_
_atom_type_symbol
_atom_type_oxidation_number
Cu2+ 2
Si4+ 4
Na1+ 1
O2- -2
loop_
_atom_site_label
_atom_site_type_symbol
_atom_site_symmetry_multiplicity
_atom_site_Wyckoff_symbol
_atom_site_fract_x
_atom_site_fract_y
_atom_site_fract_z
_atom_site_B_iso_or_equiv
_atom_site_occupancy
_atom_site_attached_hydrogens
Cu1 Cu2+ 4 c 0.2629(2) 0.25 0.2186(1) 0.41 1. 0
Cu2 Cu2+ 4 c 0.25 0.25 0.4397(1) 0.36 1. 0
Cu3 Cu2+ 4 a 0 0 0 0.37 1. 0
Si1 Si4+ 8 d 0.2218(3) 0.5218(2) 0.3378(2) 0.33 1. 0
Si2 Si4+ 8 d 0.3200(3) 0.5350(2) 0.1233(2) 0.31 1. 0
Na1 Na1+ 4 c 0.0319(7) 0.75 0.1737(4) 1.38 1. 0
Na2 Na1+ 4 c 0.1872(6) 0.75 0.4872(4) 1.03 1. 0
O1 O2- 8 d 0.2336(7) 0.3702(5) 0.3296(4) 0.66 1. 0
O2 O2- 8 d 0.2898(7) 0.3811(6) 0.1200(4) 0.87 1. 0
O3 O2- 8 d 0.0291(7) 0.5761(5) 0.3804(4) 0.79 1. 0
O4 O2- 8 d 0.2391(7) 0.5298(5) 0.2277(4) 0.59 1. 0
O5 O2- 8 d 0.3715(7) 0.5928(5) 0.4043(4) 0.52 1. 0
O6 O2- 8 d 0.2171(7) 0.6094(5) 0.0344(4) 0.61 1. 0
#End of TTdata_169-ICSD
