
#(C) 2019 by FIZ Karlsruhe - Leibniz Institute for Information Infrastructure.  All rights reserved.
data_108-ICSD
_database_code_ICSD 108
_audit_creation_date 1980-01-01
_audit_update_record 2004-10-01
_chemical_name_systematic 'Tellurium iodide (1/1) - beta'
_chemical_formula_structural 'Te I'
_chemical_formula_sum 'I1 Te1'
_exptl_crystal_density_diffrn 5.56
_publ_section_title 'Zur Kenntnis der Subhalogenide des Tellurs'
loop_
_citation_id
_citation_journal_full
_citation_year
_citation_journal_volume
_citation_page_first
_citation_page_last
_citation_journal_id_ASTM
primary 'Zeitschrift fuer Anorganische und Allgemeine Chemie (1950) (DE)' 1976
422 17 38 ZAACAB
loop_
_publ_author_name
'Kniep, R.'
'Mootz, D.'
'Rabenau, A.'
_cell_length_a 15.383(2)
_cell_length_b 4.182(2)
_cell_length_c 11.999(2)
_cell_angle_alpha 90.
_cell_angle_beta 128.09(1)
_cell_angle_gamma 90.
_cell_volume 607.53
_cell_formula_units_Z 8
_symmetry_space_group_name_H-M 'C 1 2/m 1'
_symmetry_Int_Tables_number 12
_refine_ls_R_factor_all 0.054
loop_
_symmetry_equiv_pos_site_id
_symmetry_equiv_pos_as_xyz
1 '-x, y, -z'
2 '-x, -y, -z'
3 'x, -y, z'
4 'x, y, z'
5 '-x+1/2, y+1/2, -z'
6 '-x+1/2, -y+1/2, -z'
7 'x+1/2, -y+1/2, z'
8 'x+1/2, y+1/2, z'
loop_
_atom_type_symbol
_atom_type_oxidation_number
Te1+ 1
I1- -1
loop_
_atom_site_label
_atom_site_type_symbol
_atom_site_symmetry_multiplicity
_atom_site_Wyckoff_symbol
_atom_site_fract_x
_atom_site_fract_y
_atom_site_fract_z
_atom_site_B_iso_or_equiv
_atom_site_occupancy
_atom_site_attached_hydrogens
Te1 Te1+ 4 i 0.30659(8) 0 0.18592(9) . 1. 0
Te2 Te1+ 4 i 0.42917(8) 0.5 0.16817(10) . 1. 0
I1 I1- 4 i 0.15374(8) 0.5 0.18251(10) . 1. 0
I2 I1- 4 i 0.61073(8) 0.5 0.44839(10) . 1. 0
loop_
_atom_site_aniso_label
_atom_site_aniso_type_symbol
_atom_site_aniso_U_11
_atom_site_aniso_U_22
_atom_site_aniso_U_33
_atom_site_aniso_U_12
_atom_site_aniso_U_13
_atom_site_aniso_U_23
Te1 Te1+ 0.0211 0.0195 0.016 0 0.0109 0
Te2 Te1+ 0.0223 0.018 0.0254 0 0.0179 0
I1 I1- 0.025 0.0234 0.0345 0 0.0226 0
I2 I1- 0.0234 0.0295 0.0253 0 0.0138 0
#End of TTdata_108-ICSD
