
#(C) 2019 by FIZ Karlsruhe - Leibniz Institute for Information Infrastructure.  All rights reserved.
data_183-ICSD
_database_code_ICSD 183
_audit_creation_date 1980-01-01
_audit_update_record 2016-08-01
_chemical_name_systematic 'Sodium chlorate(VII) hydrate'
_chemical_formula_structural 'Na (Cl O4) (H2 O)'
_chemical_formula_sum 'H2 Cl1 Na1 O5'
_chemical_name_structure_type NaClO4(H2O)
_exptl_crystal_density_diffrn 2.1
_publ_section_title

;
Hydrogen bond studies. CII. An X-ray determination of the crystal structure of
sodium perchlorate monohydrate, Na Cl O4 (H2 O)
;
loop_
_citation_id
_citation_journal_full
_citation_year
_citation_journal_volume
_citation_page_first
_citation_page_last
_citation_journal_id_ASTM
primary

;
Acta Crystallographica, Section B: Structural Crystallography and Crystal
Chemistry
; 1975 31 1842 1846 ACBCAR
loop_
_publ_author_name
'Berglund, B.'
'Thomas, J.O.'
'Tellgren, R.'
_cell_length_a 15.5422(13)
_cell_length_b 5.5399(5)
_cell_length_c 11.0455(11)
_cell_angle_alpha 90.
_cell_angle_beta 110.666(8)
_cell_angle_gamma 90.
_cell_volume 889.85
_cell_formula_units_Z 8
_symmetry_space_group_name_H-M 'C 1 2/c 1'
_symmetry_Int_Tables_number 15
_refine_ls_R_factor_all 0.025
loop_
_symmetry_equiv_pos_site_id
_symmetry_equiv_pos_as_xyz
1 'x, -y, z+1/2'
2 '-x, -y, -z'
3 '-x, y, -z+1/2'
4 'x, y, z'
5 'x+1/2, -y+1/2, z+1/2'
6 '-x+1/2, -y+1/2, -z'
7 '-x+1/2, y+1/2, -z+1/2'
8 'x+1/2, y+1/2, z'
loop_
_atom_type_symbol
_atom_type_oxidation_number
Na1+ 1
Cl7+ 7
O2- -2
H1+ 1
loop_
_atom_site_label
_atom_site_type_symbol
_atom_site_symmetry_multiplicity
_atom_site_Wyckoff_symbol
_atom_site_fract_x
_atom_site_fract_y
_atom_site_fract_z
_atom_site_B_iso_or_equiv
_atom_site_occupancy
_atom_site_attached_hydrogens
Na1 Na1+ 4 d 0.25 0.25 0.5 . 1. 0
Na2 Na1+ 4 e 0 0.46626(13) 0.25 . 1. 0
Cl1 Cl7+ 8 f 0.12541(2) -0.02264(5) 0.19332(3) . 1. 0
O1 O2- 8 f 0.16733(10) -0.01625(19) 0.33131(11) . 1. 0
O2 O2- 8 f 0.19400(11) -0.01163(20) 0.13541(16) . 1. 0
O3 O2- 8 f 0.06621(10) 0.17957(24) 0.15087(12) . 1. 0
O4 O2- 8 f 0.07537(8) -0.24320(19) 0.1571(1) . 1. 0
O5 O2- 8 f 0.37467(9) 0.02392(25) 0.05100(13) . 1. 0
H1 H1+ 8 f 0.380(2) 0.020(5) 0.003(3) 6.7(10) 1. 0
H2 H1+ 8 f 0.364(2) 0.153(8) 0.047(4) 10.9(12) 1. 0
loop_
_atom_site_aniso_label
_atom_site_aniso_type_symbol
_atom_site_aniso_beta_11
_atom_site_aniso_beta_22
_atom_site_aniso_beta_33
_atom_site_aniso_beta_12
_atom_site_aniso_beta_13
_atom_site_aniso_beta_23
Na1 Na1+ 0.0033(1) 0.0219(2) 0.0062(1) -0.0003(1) 0.0012(1) -0.0006(1)
Na2 Na1+ 0.0037(1) 0.0245(2) 0.0065(1) 0 0.0018(1) 0
Cl1 Cl7+ 0.0034(1) 0.0163(1) 0.0051(1) -0.0005(1) 0.0020(1) -0.0012(1)
O1 O2- 0.0072(1) 0.0314(4) 0.0058(1) -0.0031(1) 0.0008(1) -0.0025(1)
O2 O2- 0.0067(1) 0.0352(4) 0.0158(2) -0.0030(1) 0.0078(1) -0.0054(2)
O3 O2- 0.0080(1) 0.0352(4) 0.0112(1) 0.0084(2) 0.0043(1) 0.0040(2)
O4 O2- 0.0063(1) 0.0308(4) 0.0076(1) -0.0068(1) 0.0026(1) -0.0035(1)
O5 O2- 0.0042(1) 0.0301(4) 0.0070(1) -0.0024(1) 0.0013(1) 0.0014(1)
#End of TTdata_183-ICSD
