
#(C) 2019 by FIZ Karlsruhe - Leibniz Institute for Information Infrastructure.  All rights reserved.
data_274-ICSD
_database_code_ICSD 274
_audit_creation_date 1980-01-01
_audit_update_record 2009-08-01
_chemical_name_systematic 'Uranium(VI) dichromate(III)'
_chemical_formula_structural 'U (Cr2 O6)'
_chemical_formula_sum 'Cr2 O6 U1'
_chemical_name_structure_type Li2ZrF6
_exptl_crystal_density_diffrn 7.3
_publ_section_title

;
Etude par diffractions X et neutronique d'un monocristal de U Cr2 O6 obtenu
par synthese hydrothermale sous tres haute pression. Determination des
structures cristallographique et magnetique
;
loop_
_citation_id
_citation_journal_full
_citation_year
_citation_journal_volume
_citation_page_first
_citation_page_last
_citation_journal_id_ASTM
primary 'Journal of Solid State Chemistry' 1976 16 41 48 JSSCBI
loop_
_publ_author_name
'Collomb, A.'
'Gondrand, M.'
'Lehmann, M.'
'Capponi, J.J.'
'Joubert, J.C.'
_cell_length_a 4.990(1)
_cell_length_b 4.990(1)
_cell_length_c 4.622(1)
_cell_angle_alpha 90.
_cell_angle_beta 90.
_cell_angle_gamma 120.
_cell_volume 99.67
_cell_formula_units_Z 1
_symmetry_space_group_name_H-M 'P -3 1 m'
_symmetry_Int_Tables_number 162
_refine_ls_R_factor_all 0.033
loop_
_symmetry_equiv_pos_site_id
_symmetry_equiv_pos_as_xyz
1 '-x+y, y, -z'
2 'x, x-y, -z'
3 '-y, -x, -z'
4 'x-y, x, -z'
5 'y, -x+y, -z'
6 '-x, -y, -z'
7 'x-y, -y, z'
8 '-x, -x+y, z'
9 'y, x, z'
10 '-x+y, -x, z'
11 '-y, x-y, z'
12 'x, y, z'
loop_
_atom_type_symbol
_atom_type_oxidation_number
U6+ 6
Cr3+ 3
O2- -2
loop_
_atom_site_label
_atom_site_type_symbol
_atom_site_symmetry_multiplicity
_atom_site_Wyckoff_symbol
_atom_site_fract_x
_atom_site_fract_y
_atom_site_fract_z
_atom_site_B_iso_or_equiv
_atom_site_occupancy
_atom_site_attached_hydrogens
U1 U6+ 1 a 0 0 0 . 1. 0
Cr1 Cr3+ 2 d 0.3333 0.6667 0.5 . 1. 0
O1 O2- 6 k 0.341(1) 0 0.2664(8) . 1. 0
loop_
_atom_site_aniso_label
_atom_site_aniso_type_symbol
_atom_site_aniso_beta_11
_atom_site_aniso_beta_22
_atom_site_aniso_beta_33
_atom_site_aniso_beta_12
_atom_site_aniso_beta_13
_atom_site_aniso_beta_23
U1 U6+ 0.0035 0.0035 0.0021 0.0017 0 0
Cr1 Cr3+ 0.0051 0.0051 0.0042 0.0025 0 0
O1 O2- 0.009 0.008 0.008 0.004 -.003 0
#End of TTdata_274-ICSD
