
#(C) 2019 by FIZ Karlsruhe - Leibniz Institute for Information Infrastructure.  All rights reserved.
data_313-ICSD
_database_code_ICSD 313
_audit_creation_date 1980-01-01
_audit_update_record 2009-08-01
_chemical_name_systematic 'Telluric acid - potassium fluoride (1/2)'
_chemical_formula_structural '(Te (O H)6) (K F)2'
_chemical_formula_sum 'H6 F2 K2 O6 Te1'
_exptl_crystal_density_diffrn 3.11
_publ_section_title

;
Crystal structure of an adduct of telluric acid with potassium fluoride, Te (O
H)6 (K F)2, a compound with short O-H-F hydrogen bonds
;
loop_
_citation_id
_citation_journal_full
_citation_year
_citation_journal_volume
_citation_page_first
_citation_page_last
_citation_journal_id_ASTM
primary 'Inorganic Chemistry' 1976 15 804 807 INOCAJ
loop_
_publ_author_name
'Allmann, R.'
'Haase, W.'
_cell_length_a 9.610(4)
_cell_length_b 8.999(6)
_cell_length_c 8.547(5)
_cell_angle_alpha 90.
_cell_angle_beta 90.
_cell_angle_gamma 90.
_cell_volume 739.15
_cell_formula_units_Z 4
_symmetry_space_group_name_H-M 'P c a b'
_symmetry_Int_Tables_number 61
_refine_ls_R_factor_all 0.031
loop_
_symmetry_equiv_pos_site_id
_symmetry_equiv_pos_as_xyz
1 'x+1/2, -y+1/2, z'
2 'x, y+1/2, -z+1/2'
3 '-x+1/2, y, z+1/2'
4 '-x, -y, -z'
5 '-x+1/2, y+1/2, -z'
6 '-x, -y+1/2, z+1/2'
7 'x+1/2, -y, -z+1/2'
8 'x, y, z'
loop_
_atom_type_symbol
_atom_type_oxidation_number
Te6+ 6
K1+ 1
F1- -1
O2- -2
H1+ 1
loop_
_atom_site_label
_atom_site_type_symbol
_atom_site_symmetry_multiplicity
_atom_site_Wyckoff_symbol
_atom_site_fract_x
_atom_site_fract_y
_atom_site_fract_z
_atom_site_B_iso_or_equiv
_atom_site_occupancy
_atom_site_attached_hydrogens
Te1 Te6+ 4 a 0 0 0 . 1. 0
K1 K1+ 8 c 0.2257(1) 0.2460(2) 0.2224(2) . 1. 0
F1 F1- 8 c 0.3766(3) 0.3991(4) 0.4151(4) . 1. 0
O1 O2- 8 c 0.1876(4) 0.0500(5) -.0481(5) . 1. 0
O2 O2- 8 c -.0480(4) 0.2044(5) 0.0275(5) . 1. 0
O3 O2- 8 c 0.0485(4) -.0172(5) 0.2150(5) . 1. 0
H1 H1+ 8 c 0.248(10) -.001(7) -.011(8) 1.5 1. 0
H2 H1+ 8 c -.011(7) 0.247(9) -.017(7) 0.5 1. 0
H3 H1+ 8 c -.006 0.006 0.274 0.5 1. 0
loop_
_atom_site_aniso_label
_atom_site_aniso_type_symbol
_atom_site_aniso_B_11
_atom_site_aniso_B_22
_atom_site_aniso_B_33
_atom_site_aniso_B_12
_atom_site_aniso_B_13
_atom_site_aniso_B_23
Te1 Te6+ 0.57 1.44 1.16 0.07 0.07 0.1
K1 K1+ 1.3 2.11 1.41 -.3 -.24 -.13
F1 F1- 0.98 2.51 2.09 0.02 0.03 -.18
O1 O2- 0.68 2.13 1.82 0.21 0.13 0.71
O2 O2- 1.19 1.46 2.34 0.11 0.63 0.27
O3 O2- 1.16 3.51 1.1 0.75 0.23 -.14
#End of TTdata_313-ICSD
