
#(C) 2019 by FIZ Karlsruhe - Leibniz Institute for Information Infrastructure.  All rights reserved.
data_205-ICSD
_database_code_ICSD 205
_audit_creation_date 1980-01-01
_audit_update_record 2012-08-01
_chemical_name_systematic 'Sodium tungstate (0.48/1)'
_chemical_formula_structural 'Na0.48 (W O3)'
_chemical_formula_sum 'Na0.48 O3 W1'
_exptl_crystal_density_diffrn 7.26
_publ_section_title

;
Crystal structure studies of tetragonal sodium tungsten bronzes, Nax W O3. I.
Na0.33 W O3 and Na0.48 W O3
;
loop_
_citation_id
_citation_journal_full
_citation_year
_citation_journal_volume
_citation_page_first
_citation_page_last
_citation_journal_id_ASTM
primary 'Journal of Solid State Chemistry' 1976 18 163 174 JSSCBI
loop_
_publ_author_name
'Takusagawa, F.'
'Jacobson, R.A.'
_cell_length_a 12.140(2)
_cell_length_b 12.140(2)
_cell_length_c 3.767(2)
_cell_angle_alpha 90.
_cell_angle_beta 90.
_cell_angle_gamma 90.
_cell_volume 555.18
_cell_formula_units_Z 10
_symmetry_space_group_name_H-M 'P 4/m b m'
_symmetry_Int_Tables_number 127
_refine_ls_R_factor_all 0.084
loop_
_symmetry_equiv_pos_site_id
_symmetry_equiv_pos_as_xyz
1 'y+1/2, x+1/2, -z'
2 '-y+1/2, -x+1/2, -z'
3 '-y, x, -z'
4 'y, -x, -z'
5 'x+1/2, -y+1/2, -z'
6 '-x+1/2, y+1/2, -z'
7 'x, y, -z'
8 '-x, -y, -z'
9 '-y+1/2, -x+1/2, z'
10 'y+1/2, x+1/2, z'
11 'y, -x, z'
12 '-y, x, z'
13 '-x+1/2, y+1/2, z'
14 'x+1/2, -y+1/2, z'
15 '-x, -y, z'
16 'x, y, z'
loop_
_atom_type_symbol
_atom_type_oxidation_number
W6+ 6
Na0+ 0
O2- -2
loop_
_atom_site_label
_atom_site_type_symbol
_atom_site_symmetry_multiplicity
_atom_site_Wyckoff_symbol
_atom_site_fract_x
_atom_site_fract_y
_atom_site_fract_z
_atom_site_B_iso_or_equiv
_atom_site_occupancy
_atom_site_attached_hydrogens
W1 W6+ 8 j 0.0772(1) 0.2065(1) 0.5 . 1. 0
W2 W6+ 2 c 1 0.5 0.5 . 1. 0
Na1 Na0+ 4 g 0.331(3) 0.169(3) 0 3.8 1. 0
Na2 Na0+ 2 a 0 0 0 3.1 0.4 0
O1 O2- 8 i 0.084(4) 0.209(4) 0 4.6 1. 0
O2 O2- 4 g -.013(4) 0.487(4) 0 3.4 0.5 0
O3 O2- 16 l 0.135(3) 0.067(3) 0.459(13) 0.8 0.5 0
O4 O2- 8 k 0.219(3) 0.281(3) 0.474(24) 1.2 0.5 0
O5 O2- 16 l -.004(3) 0.348(3) 0.435(10) 1. 0.5 0
loop_
_atom_site_aniso_label
_atom_site_aniso_type_symbol
_atom_site_aniso_beta_11
_atom_site_aniso_beta_22
_atom_site_aniso_beta_33
_atom_site_aniso_beta_12
_atom_site_aniso_beta_13
_atom_site_aniso_beta_23
W1 W6+ 0.00105(9) 0.00097(9) 0.0261(1) -.00004(6) 0 0
W2 W6+ 0.0008(1) 0.0008(9) 0.043(3) 0 0 0
#End of TTdata_205-ICSD
