%nprocshared=24
%mem=120GB
# opt freq b3lyp/6-31g(d)

optimize

0 1